548
6
62590
200
 0 1 1 199 155  12 0 12 37 44 15 45 33 39 10 49 5 0
 0 1 1 70 75  5 0 18 4 47 0
 0 1 1 189 131  10 0 17 42 19 40 41 13 25 14 0
 0 1 1 190 134  12 0 46 38 9 30 34 50 21 29 16 11 0
 0 1 1 200 153  12 0 32 2 20 35 36 3 28 22 1 27 0
 0 1 1 200 129  11 0 6 23 24 43 7 26 31 8 48 0
